27	3

10	10	10	

0	0	0	0	3	2	3	4	
9	3	5	2	2	5	8	
2	5	4	3	3	5	6	7	
6	5	2	2	2	6	8	
2	4	1	4	2	9	10	
8	5	5	4	2	11	12	
5	3	5	2	2	9	10	
1	2	4	4	2	10	12	
4	3	2	2	2	14	15	
3	3	2	4	1	13	
7	3	3	2	2	14	16	
3	4	1	4	1	15	
3	1	4	4	2	18	20	
3	2	2	2	1	17	
5	5	5	4	2	18	19	
6	1	5	4	1	17	
3	4	5	4	1	24	
1	3	2	3	1	22	
2	5	3	3	1	21	
3	2	4	6	2	21	23	
6	1	6	2	1	25	
2	3	2	1	1	26	
3	1	0	4	1	25	
6	2	2	1	1	25	
1	0	1	3	1	27	
1	2	2	2	1	27	
0	0	0	0	0	
